c File: flat50_3_0.col
c
c SOURCE: Joseph Culberson (joe@cs.ualberta.ca)
c DESCRIPTION: Quasi-random coloring problem
c              generated with flatness = 0
c                             probability = 0.139
c                             known coloring = 3
c                             random seed = 1939
c              Creation Date:  Tue Jun  9 12:21:39 1998
c Maximum degree = 8 Minimum degree = 1
c p edge 50 115
c cnf created by edge2cnf
p cnf 150 545
-1 -2 0
-1 -3 0
-2 -3 0
1 2 3 0
-4 -5 0
-4 -6 0
-5 -6 0
4 5 6 0
-7 -8 0
-7 -9 0
-8 -9 0
7 8 9 0
-10 -11 0
-10 -12 0
-11 -12 0
10 11 12 0
-13 -14 0
-13 -15 0
-14 -15 0
13 14 15 0
-16 -17 0
-16 -18 0
-17 -18 0
16 17 18 0
-19 -20 0
-19 -21 0
-20 -21 0
19 20 21 0
-22 -23 0
-22 -24 0
-23 -24 0
22 23 24 0
-25 -26 0
-25 -27 0
-26 -27 0
25 26 27 0
-28 -29 0
-28 -30 0
-29 -30 0
28 29 30 0
-31 -32 0
-31 -33 0
-32 -33 0
31 32 33 0
-34 -35 0
-34 -36 0
-35 -36 0
34 35 36 0
-37 -38 0
-37 -39 0
-38 -39 0
37 38 39 0
-40 -41 0
-40 -42 0
-41 -42 0
40 41 42 0
-43 -44 0
-43 -45 0
-44 -45 0
43 44 45 0
-46 -47 0
-46 -48 0
-47 -48 0
46 47 48 0
-49 -50 0
-49 -51 0
-50 -51 0
49 50 51 0
-52 -53 0
-52 -54 0
-53 -54 0
52 53 54 0
-55 -56 0
-55 -57 0
-56 -57 0
55 56 57 0
-58 -59 0
-58 -60 0
-59 -60 0
58 59 60 0
-61 -62 0
-61 -63 0
-62 -63 0
61 62 63 0
-64 -65 0
-64 -66 0
-65 -66 0
64 65 66 0
-67 -68 0
-67 -69 0
-68 -69 0
67 68 69 0
-70 -71 0
-70 -72 0
-71 -72 0
70 71 72 0
-73 -74 0
-73 -75 0
-74 -75 0
73 74 75 0
-76 -77 0
-76 -78 0
-77 -78 0
76 77 78 0
-79 -80 0
-79 -81 0
-80 -81 0
79 80 81 0
-82 -83 0
-82 -84 0
-83 -84 0
82 83 84 0
-85 -86 0
-85 -87 0
-86 -87 0
85 86 87 0
-88 -89 0
-88 -90 0
-89 -90 0
88 89 90 0
-91 -92 0
-91 -93 0
-92 -93 0
91 92 93 0
-94 -95 0
-94 -96 0
-95 -96 0
94 95 96 0
-97 -98 0
-97 -99 0
-98 -99 0
97 98 99 0
-100 -101 0
-100 -102 0
-101 -102 0
100 101 102 0
-103 -104 0
-103 -105 0
-104 -105 0
103 104 105 0
-106 -107 0
-106 -108 0
-107 -108 0
106 107 108 0
-109 -110 0
-109 -111 0
-110 -111 0
109 110 111 0
-112 -113 0
-112 -114 0
-113 -114 0
112 113 114 0
-115 -116 0
-115 -117 0
-116 -117 0
115 116 117 0
-118 -119 0
-118 -120 0
-119 -120 0
118 119 120 0
-121 -122 0
-121 -123 0
-122 -123 0
121 122 123 0
-124 -125 0
-124 -126 0
-125 -126 0
124 125 126 0
-127 -128 0
-127 -129 0
-128 -129 0
127 128 129 0
-130 -131 0
-130 -132 0
-131 -132 0
130 131 132 0
-133 -134 0
-133 -135 0
-134 -135 0
133 134 135 0
-136 -137 0
-136 -138 0
-137 -138 0
136 137 138 0
-139 -140 0
-139 -141 0
-140 -141 0
139 140 141 0
-142 -143 0
-142 -144 0
-143 -144 0
142 143 144 0
-145 -146 0
-145 -147 0
-146 -147 0
145 146 147 0
-148 -149 0
-148 -150 0
-149 -150 0
148 149 150 0
-76 -1 0
-77 -2 0
-78 -3 0
-97 -1 0
-98 -2 0
-99 -3 0
-103 -1 0
-104 -2 0
-105 -3 0
-124 -1 0
-125 -2 0
-126 -3 0
-133 -1 0
-134 -2 0
-135 -3 0
-142 -1 0
-143 -2 0
-144 -3 0
-55 -4 0
-56 -5 0
-57 -6 0
-79 -4 0
-80 -5 0
-81 -6 0
-100 -4 0
-101 -5 0
-102 -6 0
-109 -4 0
-110 -5 0
-111 -6 0
-55 -7 0
-56 -8 0
-57 -9 0
-94 -7 0
-95 -8 0
-96 -9 0
-133 -7 0
-134 -8 0
-135 -9 0
-76 -10 0
-77 -11 0
-78 -12 0
-109 -10 0
-110 -11 0
-111 -12 0
-139 -10 0
-140 -11 0
-141 -12 0
-61 -13 0
-62 -14 0
-63 -15 0
-79 -13 0
-80 -14 0
-81 -15 0
-82 -13 0
-83 -14 0
-84 -15 0
-97 -13 0
-98 -14 0
-99 -15 0
-112 -13 0
-113 -14 0
-114 -15 0
-130 -13 0
-131 -14 0
-132 -15 0
-139 -13 0
-140 -14 0
-141 -15 0
-142 -13 0
-143 -14 0
-144 -15 0
-100 -16 0
-101 -17 0
-102 -18 0
-112 -16 0
-113 -17 0
-114 -18 0
-124 -16 0
-125 -17 0
-126 -18 0
-139 -16 0
-140 -17 0
-141 -18 0
-148 -16 0
-149 -17 0
-150 -18 0
-133 -19 0
-134 -20 0
-135 -21 0
-148 -19 0
-149 -20 0
-150 -21 0
-67 -22 0
-68 -23 0
-69 -24 0
-73 -22 0
-74 -23 0
-75 -24 0
-79 -22 0
-80 -23 0
-81 -24 0
-88 -22 0
-89 -23 0
-90 -24 0
-103 -22 0
-104 -23 0
-105 -24 0
-112 -22 0
-113 -23 0
-114 -24 0
-64 -25 0
-65 -26 0
-66 -27 0
-130 -25 0
-131 -26 0
-132 -27 0
-64 -28 0
-65 -29 0
-66 -30 0
-85 -28 0
-86 -29 0
-87 -30 0
-97 -28 0
-98 -29 0
-99 -30 0
-109 -28 0
-110 -29 0
-111 -30 0
-121 -28 0
-122 -29 0
-123 -30 0
-73 -31 0
-74 -32 0
-75 -33 0
-97 -31 0
-98 -32 0
-99 -33 0
-100 -31 0
-101 -32 0
-102 -33 0
-106 -31 0
-107 -32 0
-108 -33 0
-142 -31 0
-143 -32 0
-144 -33 0
-79 -34 0
-80 -35 0
-81 -36 0
-106 -34 0
-107 -35 0
-108 -36 0
-82 -37 0
-83 -38 0
-84 -39 0
-88 -37 0
-89 -38 0
-90 -39 0
-91 -37 0
-92 -38 0
-93 -39 0
-100 -37 0
-101 -38 0
-102 -39 0
-121 -37 0
-122 -38 0
-123 -39 0
-52 -40 0
-53 -41 0
-54 -42 0
-85 -40 0
-86 -41 0
-87 -42 0
-139 -40 0
-140 -41 0
-141 -42 0
-145 -40 0
-146 -41 0
-147 -42 0
-73 -43 0
-74 -44 0
-75 -45 0
-82 -43 0
-83 -44 0
-84 -45 0
-85 -43 0
-86 -44 0
-87 -45 0
-103 -43 0
-104 -44 0
-105 -45 0
-118 -43 0
-119 -44 0
-120 -45 0
-121 -43 0
-122 -44 0
-123 -45 0
-52 -46 0
-53 -47 0
-54 -48 0
-55 -46 0
-56 -47 0
-57 -48 0
-67 -46 0
-68 -47 0
-69 -48 0
-76 -46 0
-77 -47 0
-78 -48 0
-130 -46 0
-131 -47 0
-132 -48 0
-145 -46 0
-146 -47 0
-147 -48 0
-64 -49 0
-65 -50 0
-66 -51 0
-94 -49 0
-95 -50 0
-96 -51 0
-121 -49 0
-122 -50 0
-123 -51 0
-127 -49 0
-128 -50 0
-129 -51 0
-133 -49 0
-134 -50 0
-135 -51 0
-112 -52 0
-113 -53 0
-114 -54 0
-145 -52 0
-146 -53 0
-147 -54 0
-109 -55 0
-110 -56 0
-111 -57 0
-118 -55 0
-119 -56 0
-120 -57 0
-112 -58 0
-113 -59 0
-114 -60 0
-127 -58 0
-128 -59 0
-129 -60 0
-130 -58 0
-131 -59 0
-132 -60 0
-142 -58 0
-143 -59 0
-144 -60 0
-121 -61 0
-122 -62 0
-123 -63 0
-109 -64 0
-110 -65 0
-111 -66 0
-118 -64 0
-119 -65 0
-120 -66 0
-145 -64 0
-146 -65 0
-147 -66 0
-130 -67 0
-131 -68 0
-132 -69 0
-145 -67 0
-146 -68 0
-147 -69 0
-148 -70 0
-149 -71 0
-150 -72 0
-127 -73 0
-128 -74 0
-129 -75 0
-112 -76 0
-113 -77 0
-114 -78 0
-115 -76 0
-116 -77 0
-117 -78 0
-124 -76 0
-125 -77 0
-126 -78 0
-148 -76 0
-149 -77 0
-150 -78 0
-106 -79 0
-107 -80 0
-108 -81 0
-112 -79 0
-113 -80 0
-114 -81 0
-121 -79 0
-122 -80 0
-123 -81 0
-136 -79 0
-137 -80 0
-138 -81 0
-127 -82 0
-128 -83 0
-129 -84 0
-136 -82 0
-137 -83 0
-138 -84 0
-139 -82 0
-140 -83 0
-141 -84 0
-136 -85 0
-137 -86 0
-138 -87 0
-148 -88 0
-149 -89 0
-150 -90 0
-103 -91 0
-104 -92 0
-105 -93 0
-115 -91 0
-116 -92 0
-117 -93 0
-130 -91 0
-131 -92 0
-132 -93 0
-136 -91 0
-137 -92 0
-138 -93 0
-145 -94 0
-146 -95 0
-147 -96 0
-109 -97 0
-110 -98 0
-111 -99 0
-130 -97 0
-131 -98 0
-132 -99 0
-124 -100 0
-125 -101 0
-126 -102 0
-127 -100 0
-128 -101 0
-129 -102 0
